p cnf 80 268
1 2 3 4 0
5 6 7 8 0
9 10 11 12 0
13 14 15 16 0
17 18 19 20 0
21 22 23 24 0
25 26 27 28 0
29 30 31 32 0
33 34 35 36 0
37 38 39 40 0
41 42 43 44 0
45 46 47 48 0
49 50 51 52 0
53 54 55 56 0
57 58 59 60 0
61 62 63 64 0
65 66 67 68 0
69 70 71 72 0
73 74 75 76 0
77 78 79 80 0
-1 -2 0
-1 -3 0
-1 -4 0
-2 -3 0
-2 -4 0
-3 -4 0
-5 -6 0
-5 -7 0
-5 -8 0
-6 -7 0
-6 -8 0
-7 -8 0
-9 -10 0
-9 -11 0
-9 -12 0
-10 -11 0
-10 -12 0
-11 -12 0
-13 -14 0
-13 -15 0
-13 -16 0
-14 -15 0
-14 -16 0
-15 -16 0
-17 -18 0
-17 -19 0
-17 -20 0
-18 -19 0
-18 -20 0
-19 -20 0
-21 -22 0
-21 -23 0
-21 -24 0
-22 -23 0
-22 -24 0
-23 -24 0
-25 -26 0
-25 -27 0
-25 -28 0
-26 -27 0
-26 -28 0
-27 -28 0
-29 -30 0
-29 -31 0
-29 -32 0
-30 -31 0
-30 -32 0
-31 -32 0
-33 -34 0
-33 -35 0
-33 -36 0
-34 -35 0
-34 -36 0
-35 -36 0
-37 -38 0
-37 -39 0
-37 -40 0
-38 -39 0
-38 -40 0
-39 -40 0
-41 -42 0
-41 -43 0
-41 -44 0
-42 -43 0
-42 -44 0
-43 -44 0
-45 -46 0
-45 -47 0
-45 -48 0
-46 -47 0
-46 -48 0
-47 -48 0
-49 -50 0
-49 -51 0
-49 -52 0
-50 -51 0
-50 -52 0
-51 -52 0
-53 -54 0
-53 -55 0
-53 -56 0
-54 -55 0
-54 -56 0
-55 -56 0
-57 -58 0
-57 -59 0
-57 -60 0
-58 -59 0
-58 -60 0
-59 -60 0
-61 -62 0
-61 -63 0
-61 -64 0
-62 -63 0
-62 -64 0
-63 -64 0
-65 -66 0
-65 -67 0
-65 -68 0
-66 -67 0
-66 -68 0
-67 -68 0
-69 -70 0
-69 -71 0
-69 -72 0
-70 -71 0
-70 -72 0
-71 -72 0
-73 -74 0
-73 -75 0
-73 -76 0
-74 -75 0
-74 -76 0
-75 -76 0
-77 -78 0
-77 -79 0
-77 -80 0
-78 -79 0
-78 -80 0
-79 -80 0
-13 -1 0
-14 -2 0
-15 -3 0
-16 -4 0
-13 -1 0
-14 -2 0
-15 -3 0
-16 -4 0
-13 -1 0
-14 -2 0
-15 -3 0
-16 -4 0
-13 -1 0
-14 -2 0
-15 -3 0
-16 -4 0
-9 -5 0
-10 -6 0
-11 -7 0
-12 -8 0
-9 -5 0
-10 -6 0
-11 -7 0
-12 -8 0
-9 -5 0
-10 -6 0
-11 -7 0
-12 -8 0
-9 -5 0
-10 -6 0
-11 -7 0
-12 -8 0
-5 -9 0
-6 -10 0
-7 -11 0
-8 -12 0
-5 -9 0
-6 -10 0
-7 -11 0
-8 -12 0
-5 -9 0
-6 -10 0
-7 -11 0
-8 -12 0
-5 -9 0
-6 -10 0
-7 -11 0
-8 -12 0
-17 -9 0
-18 -10 0
-19 -11 0
-20 -12 0
-17 -9 0
-18 -10 0
-19 -11 0
-20 -12 0
-17 -9 0
-18 -10 0
-19 -11 0
-20 -12 0
-17 -9 0
-18 -10 0
-19 -11 0
-20 -12 0
-1 -13 0
-2 -14 0
-3 -15 0
-4 -16 0
-1 -13 0
-2 -14 0
-3 -15 0
-4 -16 0
-1 -13 0
-2 -14 0
-3 -15 0
-4 -16 0
-1 -13 0
-2 -14 0
-3 -15 0
-4 -16 0
-17 -13 0
-18 -14 0
-19 -15 0
-20 -16 0
-17 -13 0
-18 -14 0
-19 -15 0
-20 -16 0
-17 -13 0
-18 -14 0
-19 -15 0
-20 -16 0
-17 -13 0
-18 -14 0
-19 -15 0
-20 -16 0
-13 -17 0
-14 -18 0
-15 -19 0
-16 -20 0
-13 -17 0
-14 -18 0
-15 -19 0
-16 -20 0
-13 -17 0
-14 -18 0
-15 -19 0
-16 -20 0
-13 -17 0
-14 -18 0
-15 -19 0
-16 -20 0
-9 -17 0
-10 -18 0
-11 -19 0
-12 -20 0
-9 -17 0
-10 -18 0
-11 -19 0
-12 -20 0
-9 -17 0
-10 -18 0
-11 -19 0
-12 -20 0
-9 -17 0
-10 -18 0
-11 -19 0
-12 -20 0
